NAME : single
TYPE : ATSP
DIMENSION : 8
EDGE_WEIGHT_TYPE : EXPLICIT
EDGE_WEIGHT_FORMAT : FULL_MATRIX
EDGE_WEIGHT_SECTION
0 669 630 589 390 159 709 660 
0 0 69 298 508 252 212 276 
0 69 0 259 493 223 185 206 
0 298 259 0 257 304 441 401 
0 508 493 257 0 248 525 486 
0 252 223 304 248 0 298 257 
0 212 185 441 525 298 0 64 
0 276 206 401 486 257 64 0 
EOF